72 36 39 42 44 41 38 40 35 37 43 68 
65 83 59 75 97 74 66 
90 94 93 
61 81 54 96 
82 52 99 57 86 87 9 13 17 60 
92 95 63 33 31 29 27 30 28 26 34 50 32 89 91 80 
14 47 16 15 12 11 10 
69 98 88 6 8 46 3 1 4 100 70 
71 67 62 85 76 51 84 56 
5 45 2 7 79 73 78 53 55 
64 23 21 18 19 49 22 20 24 48 25 77 58 
